NAME           C:\Bruker\Hvattum\knapsack\Problems\class1\100-5-21.mps
ROWS
 N  OBJ
 L  CONSTR1
 L  CONSTR2
 L  CONSTR3
 L  CONSTR4
 L  CONSTR5
COLUMNS
    INT0001   'MARKER'  'INTORG'
    X1        OBJ       1035
    X1        CONSTR1   898
    X1        CONSTR2   703
    X1        CONSTR3   963
    X1        CONSTR4   399
    X1        CONSTR5   602
    X2        OBJ       760
    X2        CONSTR1   137
    X2        CONSTR2   58
    X2        CONSTR3   713
    X2        CONSTR4   635
    X2        CONSTR5   456
    X3        OBJ       1051
    X3        CONSTR1   865
    X3        CONSTR2   931
    X3        CONSTR3   946
    X3        CONSTR4   464
    X3        CONSTR5   541
    X4        OBJ       473
    X4        CONSTR1   892
    X4        CONSTR2   130
    X4        CONSTR3   429
    X4        CONSTR4   149
    X4        CONSTR5   474
    X5        OBJ       414
    X5        CONSTR1   976
    X5        CONSTR2   191
    X5        CONSTR3   12
    X5        CONSTR4   36
    X5        CONSTR5   309
    X6        OBJ       773
    X6        CONSTR1   857
    X6        CONSTR2   4
    X6        CONSTR3   560
    X6        CONSTR4   900
    X6        CONSTR5   123
    X7        OBJ       571
    X7        CONSTR1   353
    X7        CONSTR2   65
    X7        CONSTR3   317
    X7        CONSTR4   772
    X7        CONSTR5   233
    X8        OBJ       578
    X8        CONSTR1   15
    X8        CONSTR2   501
    X8        CONSTR3   138
    X8        CONSTR4   836
    X8        CONSTR5   358
    X9        OBJ       690
    X9        CONSTR1   11
    X9        CONSTR2   240
    X9        CONSTR3   373
    X9        CONSTR4   188
    X9        CONSTR5   760
    X10       OBJ       552
    X10       CONSTR1   215
    X10       CONSTR2   353
    X10       CONSTR3   871
    X10       CONSTR4   347
    X10       CONSTR5   843
    X11       OBJ       916
    X11       CONSTR1   98
    X11       CONSTR2   211
    X11       CONSTR3   834
    X11       CONSTR4   808
    X11       CONSTR5   213
    X12       OBJ       1000
    X12       CONSTR1   834
    X12       CONSTR2   598
    X12       CONSTR3   80
    X12       CONSTR4   864
    X12       CONSTR5   696
    X13       OBJ       538
    X13       CONSTR1   43
    X13       CONSTR2   683
    X13       CONSTR3   296
    X13       CONSTR4   667
    X13       CONSTR5   772
    X14       OBJ       485
    X14       CONSTR1   374
    X14       CONSTR2   241
    X14       CONSTR3   102
    X14       CONSTR4   71
    X14       CONSTR5   742
    X15       OBJ       480
    X15       CONSTR1   17
    X15       CONSTR2   112
    X15       CONSTR3   535
    X15       CONSTR4   451
    X15       CONSTR5   760
    X16       OBJ       619
    X16       CONSTR1   371
    X16       CONSTR2   439
    X16       CONSTR3   999
    X16       CONSTR4   307
    X16       CONSTR5   664
    X17       OBJ       1069
    X17       CONSTR1   903
    X17       CONSTR2   593
    X17       CONSTR3   929
    X17       CONSTR4   326
    X17       CONSTR5   740
    X18       OBJ       694
    X18       CONSTR1   227
    X18       CONSTR2   450
    X18       CONSTR3   136
    X18       CONSTR4   298
    X18       CONSTR5   108
    X19       OBJ       1116
    X19       CONSTR1   661
    X19       CONSTR2   740
    X19       CONSTR3   951
    X19       CONSTR4   289
    X19       CONSTR5   998
    X20       OBJ       964
    X20       CONSTR1   296
    X20       CONSTR2   723
    X20       CONSTR3   951
    X20       CONSTR4   789
    X20       CONSTR5   482
    X21       OBJ       810
    X21       CONSTR1   519
    X21       CONSTR2   387
    X21       CONSTR3   770
    X21       CONSTR4   424
    X21       CONSTR5   770
    X22       OBJ       523
    X22       CONSTR1   721
    X22       CONSTR2   245
    X22       CONSTR3   109
    X22       CONSTR4   338
    X22       CONSTR5   403
    X23       OBJ       570
    X23       CONSTR1   111
    X23       CONSTR2   896
    X23       CONSTR3   198
    X23       CONSTR4   434
    X23       CONSTR5   465
    X24       OBJ       457
    X24       CONSTR1   142
    X24       CONSTR2   28
    X24       CONSTR3   758
    X24       CONSTR4   206
    X24       CONSTR5   99
    X25       OBJ       540
    X25       CONSTR1   513
    X25       CONSTR2   282
    X25       CONSTR3   78
    X25       CONSTR4   224
    X25       CONSTR5   784
    X26       OBJ       718
    X26       CONSTR1   328
    X26       CONSTR2   785
    X26       CONSTR3   220
    X26       CONSTR4   29
    X26       CONSTR5   85
    X27       OBJ       776
    X27       CONSTR1   983
    X27       CONSTR2   975
    X27       CONSTR3   569
    X27       CONSTR4   456
    X27       CONSTR5   679
    X28       OBJ       599
    X28       CONSTR1   89
    X28       CONSTR2   906
    X28       CONSTR3   890
    X28       CONSTR4   603
    X28       CONSTR5   147
    X29       OBJ       967
    X29       CONSTR1   893
    X29       CONSTR2   350
    X29       CONSTR3   759
    X29       CONSTR4   975
    X29       CONSTR5   310
    X30       OBJ       835
    X30       CONSTR1   733
    X30       CONSTR2   712
    X30       CONSTR3   365
    X30       CONSTR4   938
    X30       CONSTR5   939
    X31       OBJ       561
    X31       CONSTR1   933
    X31       CONSTR2   268
    X31       CONSTR3   153
    X31       CONSTR4   734
    X31       CONSTR5   438
    X32       OBJ       973
    X32       CONSTR1   642
    X32       CONSTR2   908
    X32       CONSTR3   205
    X32       CONSTR4   417
    X32       CONSTR5   352
    X33       OBJ       1006
    X33       CONSTR1   519
    X33       CONSTR2   951
    X33       CONSTR3   941
    X33       CONSTR4   2
    X33       CONSTR5   185
    X34       OBJ       913
    X34       CONSTR1   728
    X34       CONSTR2   908
    X34       CONSTR3   360
    X34       CONSTR4   671
    X34       CONSTR5   983
    X35       OBJ       536
    X35       CONSTR1   138
    X35       CONSTR2   476
    X35       CONSTR3   190
    X35       CONSTR4   344
    X35       CONSTR5   288
    X36       OBJ       754
    X36       CONSTR1   92
    X36       CONSTR2   656
    X36       CONSTR3   491
    X36       CONSTR4   298
    X36       CONSTR5   116
    X37       OBJ       1032
    X37       CONSTR1   927
    X37       CONSTR2   716
    X37       CONSTR3   669
    X37       CONSTR4   612
    X37       CONSTR5   125
    X38       OBJ       756
    X38       CONSTR1   489
    X38       CONSTR2   871
    X38       CONSTR3   824
    X38       CONSTR4   710
    X38       CONSTR5   572
    X39       OBJ       692
    X39       CONSTR1   938
    X39       CONSTR2   631
    X39       CONSTR3   99
    X39       CONSTR4   399
    X39       CONSTR5   63
    X40       OBJ       830
    X40       CONSTR1   781
    X40       CONSTR2   530
    X40       CONSTR3   549
    X40       CONSTR4   74
    X40       CONSTR5   804
    X41       OBJ       884
    X41       CONSTR1   730
    X41       CONSTR2   326
    X41       CONSTR3   381
    X41       CONSTR4   728
    X41       CONSTR5   24
    X42       OBJ       830
    X42       CONSTR1   104
    X42       CONSTR2   660
    X42       CONSTR3   252
    X42       CONSTR4   711
    X42       CONSTR5   215
    X43       OBJ       872
    X43       CONSTR1   618
    X43       CONSTR2   326
    X43       CONSTR3   293
    X43       CONSTR4   714
    X43       CONSTR5   158
    X44       OBJ       730
    X44       CONSTR1   917
    X44       CONSTR2   543
    X44       CONSTR3   747
    X44       CONSTR4   352
    X44       CONSTR5   928
    X45       OBJ       418
    X45       CONSTR1   7
    X45       CONSTR2   252
    X45       CONSTR3   240
    X45       CONSTR4   842
    X45       CONSTR5   359
    X46       OBJ       1042
    X46       CONSTR1   405
    X46       CONSTR2   497
    X46       CONSTR3   835
    X46       CONSTR4   403
    X46       CONSTR5   658
    X47       OBJ       585
    X47       CONSTR1   81
    X47       CONSTR2   619
    X47       CONSTR3   515
    X47       CONSTR4   643
    X47       CONSTR5   381
    X48       OBJ       1058
    X48       CONSTR1   560
    X48       CONSTR2   886
    X48       CONSTR3   435
    X48       CONSTR4   798
    X48       CONSTR5   440
    X49       OBJ       957
    X49       CONSTR1   617
    X49       CONSTR2   389
    X49       CONSTR3   735
    X49       CONSTR4   955
    X49       CONSTR5   741
    X50       OBJ       331
    X50       CONSTR1   214
    X50       CONSTR2   177
    X50       CONSTR3   45
    X50       CONSTR4   654
    X50       CONSTR5   445
    X51       OBJ       935
    X51       CONSTR1   696
    X51       CONSTR2   747
    X51       CONSTR3   461
    X51       CONSTR4   510
    X51       CONSTR5   626
    X52       OBJ       317
    X52       CONSTR1   4
    X52       CONSTR2   291
    X52       CONSTR3   964
    X52       CONSTR4   111
    X52       CONSTR5   213
    X53       OBJ       755
    X53       CONSTR1   455
    X53       CONSTR2   927
    X53       CONSTR3   465
    X53       CONSTR4   710
    X53       CONSTR5   464
    X54       OBJ       636
    X54       CONSTR1   234
    X54       CONSTR2   436
    X54       CONSTR3   978
    X54       CONSTR4   482
    X54       CONSTR5   571
    X55       OBJ       751
    X55       CONSTR1   209
    X55       CONSTR2   597
    X55       CONSTR3   884
    X55       CONSTR4   930
    X55       CONSTR5   848
    X56       OBJ       812
    X56       CONSTR1   465
    X56       CONSTR2   347
    X56       CONSTR3   553
    X56       CONSTR4   906
    X56       CONSTR5   371
    X57       OBJ       655
    X57       CONSTR1   348
    X57       CONSTR2   907
    X57       CONSTR3   616
    X57       CONSTR4   621
    X57       CONSTR5   209
    X58       OBJ       590
    X58       CONSTR1   520
    X58       CONSTR2   173
    X58       CONSTR3   227
    X58       CONSTR4   155
    X58       CONSTR5   693
    X59       OBJ       858
    X59       CONSTR1   474
    X59       CONSTR2   567
    X59       CONSTR3   470
    X59       CONSTR4   597
    X59       CONSTR5   353
    X60       OBJ       916
    X60       CONSTR1   931
    X60       CONSTR2   543
    X60       CONSTR3   526
    X60       CONSTR4   139
    X60       CONSTR5   440
    X61       OBJ       554
    X61       CONSTR1   383
    X61       CONSTR2   333
    X61       CONSTR3   644
    X61       CONSTR4   587
    X61       CONSTR5   550
    X62       OBJ       1062
    X62       CONSTR1   585
    X62       CONSTR2   959
    X62       CONSTR3   250
    X62       CONSTR4   239
    X62       CONSTR5   953
    X63       OBJ       861
    X63       CONSTR1   54
    X63       CONSTR2   140
    X63       CONSTR3   749
    X63       CONSTR4   218
    X63       CONSTR5   810
    X64       OBJ       486
    X64       CONSTR1   232
    X64       CONSTR2   576
    X64       CONSTR3   460
    X64       CONSTR4   852
    X64       CONSTR5   14
    X65       OBJ       742
    X65       CONSTR1   827
    X65       CONSTR2   644
    X65       CONSTR3   836
    X65       CONSTR4   704
    X65       CONSTR5   114
    X66       OBJ       625
    X66       CONSTR1   69
    X66       CONSTR2   286
    X66       CONSTR3   122
    X66       CONSTR4   561
    X66       CONSTR5   192
    X67       OBJ       887
    X67       CONSTR1   511
    X67       CONSTR2   104
    X67       CONSTR3   524
    X67       CONSTR4   257
    X67       CONSTR5   603
    X68       OBJ       883
    X68       CONSTR1   945
    X68       CONSTR2   63
    X68       CONSTR3   852
    X68       CONSTR4   878
    X68       CONSTR5   391
    X69       OBJ       652
    X69       CONSTR1   588
    X69       CONSTR2   677
    X69       CONSTR3   648
    X69       CONSTR4   70
    X69       CONSTR5   399
    X70       OBJ       960
    X70       CONSTR1   961
    X70       CONSTR2   950
    X70       CONSTR3   926
    X70       CONSTR4   802
    X70       CONSTR5   18
    X71       OBJ       811
    X71       CONSTR1   53
    X71       CONSTR2   351
    X71       CONSTR3   889
    X71       CONSTR4   10
    X71       CONSTR5   531
    X72       OBJ       920
    X72       CONSTR1   443
    X72       CONSTR2   730
    X72       CONSTR3   302
    X72       CONSTR4   386
    X72       CONSTR5   565
    X73       OBJ       456
    X73       CONSTR1   534
    X73       CONSTR2   936
    X73       CONSTR3   167
    X73       CONSTR4   462
    X73       CONSTR5   145
    X74       OBJ       335
    X74       CONSTR1   140
    X74       CONSTR2   175
    X74       CONSTR3   587
    X74       CONSTR4   382
    X74       CONSTR5   226
    X75       OBJ       638
    X75       CONSTR1   60
    X75       CONSTR2   513
    X75       CONSTR3   321
    X75       CONSTR4   354
    X75       CONSTR5   446
    X76       OBJ       799
    X76       CONSTR1   692
    X76       CONSTR2   5
    X76       CONSTR3   735
    X76       CONSTR4   733
    X76       CONSTR5   863
    X77       OBJ       753
    X77       CONSTR1   670
    X77       CONSTR2   87
    X77       CONSTR3   553
    X77       CONSTR4   417
    X77       CONSTR5   994
    X78       OBJ       511
    X78       CONSTR1   236
    X78       CONSTR2   219
    X78       CONSTR3   877
    X78       CONSTR4   200
    X78       CONSTR5   233
    X79       OBJ       1028
    X79       CONSTR1   762
    X79       CONSTR2   679
    X79       CONSTR3   182
    X79       CONSTR4   785
    X79       CONSTR5   710
    X80       OBJ       590
    X80       CONSTR1   940
    X80       CONSTR2   86
    X80       CONSTR3   139
    X80       CONSTR4   263
    X80       CONSTR5   851
    X81       OBJ       710
    X81       CONSTR1   677
    X81       CONSTR2   474
    X81       CONSTR3   308
    X81       CONSTR4   592
    X81       CONSTR5   109
    X82       OBJ       1025
    X82       CONSTR1   483
    X82       CONSTR2   901
    X82       CONSTR3   82
    X82       CONSTR4   573
    X82       CONSTR5   708
    X83       OBJ       920
    X83       CONSTR1   668
    X83       CONSTR2   641
    X83       CONSTR3   697
    X83       CONSTR4   321
    X83       CONSTR5   930
    X84       OBJ       524
    X84       CONSTR1   777
    X84       CONSTR2   231
    X84       CONSTR3   800
    X84       CONSTR4   682
    X84       CONSTR5   38
    X85       OBJ       500
    X85       CONSTR1   575
    X85       CONSTR2   732
    X85       CONSTR3   640
    X85       CONSTR4   186
    X85       CONSTR5   355
    X86       OBJ       873
    X86       CONSTR1   120
    X86       CONSTR2   954
    X86       CONSTR3   536
    X86       CONSTR4   640
    X86       CONSTR5   501
    X87       OBJ       932
    X87       CONSTR1   947
    X87       CONSTR2   199
    X87       CONSTR3   520
    X87       CONSTR4   246
    X87       CONSTR5   617
    X88       OBJ       886
    X88       CONSTR1   296
    X88       CONSTR2   57
    X88       CONSTR3   942
    X88       CONSTR4   611
    X88       CONSTR5   140
    X89       OBJ       819
    X89       CONSTR1   304
    X89       CONSTR2   227
    X89       CONSTR3   833
    X89       CONSTR4   353
    X89       CONSTR5   695
    X90       OBJ       799
    X90       CONSTR1   543
    X90       CONSTR2   836
    X90       CONSTR3   176
    X90       CONSTR4   419
    X90       CONSTR5   217
    X91       OBJ       613
    X91       CONSTR1   210
    X91       CONSTR2   324
    X91       CONSTR3   502
    X91       CONSTR4   526
    X91       CONSTR5   773
    X92       OBJ       637
    X92       CONSTR1   772
    X92       CONSTR2   149
    X92       CONSTR3   496
    X92       CONSTR4   867
    X92       CONSTR5   368
    X93       OBJ       1050
    X93       CONSTR1   761
    X93       CONSTR2   538
    X93       CONSTR3   671
    X93       CONSTR4   475
    X93       CONSTR5   794
    X94       OBJ       543
    X94       CONSTR1   448
    X94       CONSTR2   378
    X94       CONSTR3   335
    X94       CONSTR4   616
    X94       CONSTR5   718
    X95       OBJ       756
    X95       CONSTR1   804
    X95       CONSTR2   321
    X95       CONSTR3   85
    X95       CONSTR4   399
    X95       CONSTR5   887
    X96       OBJ       565
    X96       CONSTR1   432
    X96       CONSTR2   250
    X96       CONSTR3   99
    X96       CONSTR4   586
    X96       CONSTR5   642
    X97       OBJ       500
    X97       CONSTR1   29
    X97       CONSTR2   30
    X97       CONSTR3   583
    X97       CONSTR4   457
    X97       CONSTR5   701
    X98       OBJ       659
    X98       CONSTR1   424
    X98       CONSTR2   849
    X98       CONSTR3   496
    X98       CONSTR4   787
    X98       CONSTR5   619
    X99       OBJ       472
    X99       CONSTR1   71
    X99       CONSTR2   207
    X99       CONSTR3   908
    X99       CONSTR4   139
    X99       CONSTR5   502
    X100      OBJ       666
    X100      CONSTR1   892
    X100      CONSTR2   774
    X100      CONSTR3   57
    X100      CONSTR4   704
    X100      CONSTR5   524
    INT0001   'MARKER'  'INTEND'
RHS
    RHS10001  CONSTR1   36577
    RHS10001  CONSTR2   36182
    RHS10001  CONSTR3   38612
    RHS10001  CONSTR4   37338
    RHS10001  CONSTR5   36798
BOUNDS
 BV BND       X1        .00
 BV BND       X2        .00
 BV BND       X3        .00
 BV BND       X4        .00
 BV BND       X5        .00
 BV BND       X6        .00
 BV BND       X7        .00
 BV BND       X8        .00
 BV BND       X9        .00
 BV BND       X10       .00
 BV BND       X11       .00
 BV BND       X12       .00
 BV BND       X13       .00
 BV BND       X14       .00
 BV BND       X15       .00
 BV BND       X16       .00
 BV BND       X17       .00
 BV BND       X18       .00
 BV BND       X19       .00
 BV BND       X20       .00
 BV BND       X21       .00
 BV BND       X22       .00
 BV BND       X23       .00
 BV BND       X24       .00
 BV BND       X25       .00
 BV BND       X26       .00
 BV BND       X27       .00
 BV BND       X28       .00
 BV BND       X29       .00
 BV BND       X30       .00
 BV BND       X31       .00
 BV BND       X32       .00
 BV BND       X33       .00
 BV BND       X34       .00
 BV BND       X35       .00
 BV BND       X36       .00
 BV BND       X37       .00
 BV BND       X38       .00
 BV BND       X39       .00
 BV BND       X40       .00
 BV BND       X41       .00
 BV BND       X42       .00
 BV BND       X43       .00
 BV BND       X44       .00
 BV BND       X45       .00
 BV BND       X46       .00
 BV BND       X47       .00
 BV BND       X48       .00
 BV BND       X49       .00
 BV BND       X50       .00
 BV BND       X51       .00
 BV BND       X52       .00
 BV BND       X53       .00
 BV BND       X54       .00
 BV BND       X55       .00
 BV BND       X56       .00
 BV BND       X57       .00
 BV BND       X58       .00
 BV BND       X59       .00
 BV BND       X60       .00
 BV BND       X61       .00
 BV BND       X62       .00
 BV BND       X63       .00
 BV BND       X64       .00
 BV BND       X65       .00
 BV BND       X66       .00
 BV BND       X67       .00
 BV BND       X68       .00
 BV BND       X69       .00
 BV BND       X70       .00
 BV BND       X71       .00
 BV BND       X72       .00
 BV BND       X73       .00
 BV BND       X74       .00
 BV BND       X75       .00
 BV BND       X76       .00
 BV BND       X77       .00
 BV BND       X78       .00
 BV BND       X79       .00
 BV BND       X80       .00
 BV BND       X81       .00
 BV BND       X82       .00
 BV BND       X83       .00
 BV BND       X84       .00
 BV BND       X85       .00
 BV BND       X86       .00
 BV BND       X87       .00
 BV BND       X88       .00
 BV BND       X89       .00
 BV BND       X90       .00
 BV BND       X91       .00
 BV BND       X92       .00
 BV BND       X93       .00
 BV BND       X94       .00
 BV BND       X95       .00
 BV BND       X96       .00
 BV BND       X97       .00
 BV BND       X98       .00
 BV BND       X99       .00
 BV BND       X100      .00
ENDATA
